n = 38;
lu = [|280, 1175
      |-1028, 313
      |-1173, 56
      |453, 1414
      |-1266, 91
      |1046, 1279
      |-748, 975
      |-101, -33
      |-351, -95
      |-184, 1104
      |493, 943
      |-530, 197
      |-1099, 1066
      |556, 718
      |-868, 344
      |-435, 713
      |-1397, 114
      |89, 753
      |1073, 1366
      |-1344, 622
      |-846, 503
      |-1025, -420
      |-976, -920
      |-1089, 428
      |-964, 171
      |-243, 1325
      |-696, 13
      |271, 413
      |-267, 556
      |-364, 1164
      |-712, 331
      |-363, 1380
      |-773, 1382
      |83, 1416
      |-1123, -465
      |698, 881
      |-428, -198
      |-1327, -843|];
